80   3160
141
132 62 88 92 34 56 64 30 47 131 55 44 80 121 75 72 68 135 43 127 137 33 134 48 101 81 47 68 46 36 33 112 101 107 38 46 98 60 34 55 54 58 58 57 57 49 88 114 43 38 91 54 81 104 129 72 108 52 74 83 109 91 137 90 46 130 109 58 55 126 106 94 113 74 114 42 98 121 31 1 2 282
1 3 154
1 4 27
1 5 34
1 6 54
1 7 93
1 8 177
1 9 32
1 10 58
1 11 24
1 12 155
1 13 76
1 14 279
1 15 152
1 16 192
1 17 108
1 18 46
1 19 256
1 20 140
1 21 200
1 22 279
1 23 246
1 24 73
1 25 283
1 26 83
1 27 59
1 28 275
1 29 55
1 30 117
1 31 21
1 32 231
1 33 183
1 34 297
1 35 169
1 36 35
1 37 29
1 38 191
1 39 57
1 40 295
1 41 113
1 42 281
1 43 243
1 44 264
1 45 79
1 46 194
1 47 128
1 48 224
1 49 35
1 50 105
1 51 204
1 52 122
1 53 176
1 54 219
1 55 143
1 56 240
1 57 41
1 58 129
1 59 84
1 60 10
1 61 300
1 62 189
1 63 130
1 64 34
1 65 295
1 66 145
1 67 220
1 68 17
1 69 83
1 70 198
1 71 70
1 72 140
1 73 34
1 74 162
1 75 165
1 76 49
1 77 251
1 78 134
1 79 126
1 80 256
2 3 283
2 4 269
2 5 94
2 6 157
2 7 211
2 8 164
2 9 44
2 10 163
2 11 235
2 12 28
2 13 184
2 14 73
2 15 149
2 16 99
2 17 109
2 18 185
2 19 260
2 20 205
2 21 42
2 22 69
2 23 177
2 24 150
2 25 92
2 26 187
2 27 210
2 28 231
2 29 252
2 30 43
2 31 225
2 32 148
2 33 64
2 34 236
2 35 72
2 36 127
2 37 215
2 38 251
2 39 261
2 40 152
2 41 289
2 42 36
2 43 254
2 44 245
2 45 143
2 46 45
2 47 127
2 48 196
2 49 254
2 50 112
2 51 206
2 52 228
2 53 259
2 54 200
2 55 204
2 56 152
2 57 207
2 58 122
2 59 293
2 60 267
2 61 264
2 62 97
2 63 284
2 64 223
2 65 113
2 66 198
2 67 269
2 68 79
2 69 42
2 70 79
2 71 171
2 72 148
2 73 166
2 74 93
2 75 138
2 76 204
2 77 96
2 78 242
2 79 153
2 80 273
3 4 294
3 5 131
3 6 206
3 7 274
3 8 147
3 9 127
3 10 139
3 11 284
3 12 275
3 13 52
3 14 61
3 15 15
3 16 111
3 17 94
3 18 175
3 19 56
3 20 203
3 21 89
3 22 283
3 23 206
3 24 297
3 25 165
3 26 278
3 27 125
3 28 36
3 29 85
3 30 115
3 31 222
3 32 174
3 33 57
3 34 127
3 35 100
3 36 294
3 37 106
3 38 124
3 39 105
3 40 164
3 41 168
3 42 259
3 43 220
3 44 143
3 45 289
3 46 138
3 47 271
3 48 234
3 49 296
3 50 291
3 51 132
3 52 116
3 53 82
3 54 126
3 55 103
3 56 274
3 57 143
3 58 291
3 59 120
3 60 289
3 61 185
3 62 47
3 63 293
3 64 45
3 65 10
3 66 149
3 67 247
3 68 18
3 69 61
3 70 31
3 71 72
3 72 290
3 73 41
3 74 194
3 75 91
3 76 271
3 77 108
3 78 19
3 79 33
3 80 122
4 5 236
4 6 269
4 7 298
4 8 127
4 9 234
4 10 11
4 11 18
4 12 99
4 13 107
4 14 82
4 15 140
4 16 123
4 17 235
4 18 240
4 19 11
4 20 277
4 21 272
4 22 56
4 23 167
4 24 241
4 25 51
4 26 47
4 27 267
4 28 184
4 29 74
4 30 105
4 31 168
4 32 112
4 33 140
4 34 37
4 35 248
4 36 103
4 37 81
4 38 70
4 39 235
4 40 216
4 41 29
4 42 293
4 43 178
4 44 60
4 45 263
4 46 210
4 47 266
4 48 138
4 49 225
4 50 201
4 51 23
4 52 288
4 53 226
4 54 52
4 55 11
4 56 294
4 57 14
4 58 97
4 59 205
4 60 81
4 61 104
4 62 36
4 63 49
4 64 224
4 65 58
4 66 198
4 67 73
4 68 226
4 69 280
4 70 234
4 71 13
4 72 221
4 73 247
4 74 259
4 75 239
4 76 199
4 77 190
4 78 280
4 79 207
4 80 259
5 6 34
5 7 224
5 8 61
5 9 288
5 10 118
5 11 189
5 12 240
5 13 279
5 14 288
5 15 225
5 16 82
5 17 205
5 18 213
5 19 246
5 20 199
5 21 213
5 22 243
5 23 42
5 24 42
5 25 288
5 26 23
5 27 26
5 28 81
5 29 211
5 30 271
5 31 154
5 32 135
5 33 46
5 34 52
5 35 204
5 36 205
5 37 271
5 38 161
5 39 250
5 40 270
5 41 120
5 42 105
5 43 188
5 44 34
5 45 29
5 46 223
5 47 273
5 48 37
5 49 217
5 50 147
5 51 121
5 52 76
5 53 178
5 54 139
5 55 291
5 56 45
5 57 259
5 58 33
5 59 164
5 60 93
5 61 45
5 62 100
5 63 36
5 64 20
5 65 20
5 66 10
5 67 134
5 68 193
5 69 259
5 70 140
5 71 44
5 72 232
5 73 154
5 74 282
5 75 49
5 76 173
5 77 172
5 78 186
5 79 277
5 80 202
6 7 76
6 8 82
6 9 195
6 10 59
6 11 136
6 12 101
6 13 71
6 14 118
6 15 43
6 16 112
6 17 282
6 18 93
6 19 49
6 20 242
6 21 132
6 22 239
6 23 26
6 24 50
6 25 150
6 26 91
6 27 207
6 28 185
6 29 226
6 30 298
6 31 169
6 32 54
6 33 60
6 34 209
6 35 108
6 36 211
6 37 289
6 38 134
6 39 58
6 40 69
6 41 101
6 42 270
6 43 26
6 44 22
6 45 30
6 46 209
6 47 69
6 48 62
6 49 30
6 50 124
6 51 94
6 52 150
6 53 81
6 54 29
6 55 81
6 56 51
6 57 47
6 58 215
6 59 11
6 60 225
6 61 23
6 62 209
6 63 264
6 64 138
6 65 242
6 66 122
6 67 50
6 68 74
6 69 12
6 70 75
6 71 186
6 72 88
6 73 199
6 74 214
6 75 282
6 76 290
6 77 260
6 78 232
6 79 209
6 80 99
7 8 65
7 9 259
7 10 105
7 11 183
7 12 221
7 13 267
7 14 207
7 15 145
7 16 238
7 17 227
7 18 43
7 19 147
7 20 73
7 21 102
7 22 49
7 23 101
7 24 122
7 25 141
7 26 26
7 27 108
7 28 198
7 29 196
7 30 287
7 31 91
7 32 162
7 33 294
7 34 124
7 35 182
7 36 65
7 37 142
7 38 108
7 39 233
7 40 46
7 41 88
7 42 174
7 43 150
7 44 46
7 45 117
7 46 40
7 47 270
7 48 218
7 49 31
7 50 205
7 51 163
7 52 142
7 53 68
7 54 78
7 55 30
7 56 30
7 57 206
7 58 111
7 59 109
7 60 260
7 61 43
7 62 191
7 63 176
7 64 99
7 65 59
7 66 238
7 67 165
7 68 222
7 69 69
7 70 164
7 71 246
7 72 12
7 73 186
7 74 225
7 75 121
7 76 97
7 77 17
7 78 62
7 79 277
7 80 47
8 9 213
8 10 56
8 11 39
8 12 125
8 13 186
8 14 203
8 15 261
8 16 38
8 17 216
8 18 14
8 19 189
8 20 125
8 21 121
8 22 287
8 23 288
8 24 200
8 25 177
8 26 96
8 27 288
8 28 11
8 29 28
8 30 192
8 31 226
8 32 207
8 33 100
8 34 238
8 35 231
8 36 160
8 37 67
8 38 145
8 39 164
8 40 247
8 41 173
8 42 128
8 43 14
8 44 257
8 45 206
8 46 206
8 47 131
8 48 111
8 49 169
8 50 159
8 51 206
8 52 268
8 53 146
8 54 34
8 55 299
8 56 40
8 57 121
8 58 81
8 59 180
8 60 145
8 61 177
8 62 203
8 63 77
8 64 95
8 65 44
8 66 218
8 67 25
8 68 135
8 69 299
8 70 247
8 71 14
8 72 26
8 73 53
8 74 268
8 75 185
8 76 161
8 77 37
8 78 151
8 79 94
8 80 196
9 10 144
9 11 29
9 12 289
9 13 163
9 14 278
9 15 102
9 16 142
9 17 53
9 18 133
9 19 269
9 20 77
9 21 199
9 22 134
9 23 209
9 24 260
9 25 110
9 26 225
9 27 266
9 28 273
9 29 85
9 30 257
9 31 35
9 32 116
9 33 39
9 34 80
9 35 256
9 36 88
9 37 192
9 38 231
9 39 34
9 40 275
9 41 14
9 42 194
9 43 83
9 44 11
9 45 27
9 46 106
9 47 163
9 48 111
9 49 152
9 50 13
9 51 243
9 52 227
9 53 229
9 54 209
9 55 84
9 56 170
9 57 40
9 58 91
9 59 195
9 60 13
9 61 298
9 62 201
9 63 15
9 64 39
9 65 273
9 66 259
9 67 68
9 68 39
9 69 166
9 70 112
9 71 115
9 72 239
9 73 237
9 74 167
9 75 149
9 76 126
9 77 233
9 78 39
9 79 190
9 80 279
10 11 224
10 12 110
10 13 180
10 14 105
10 15 46
10 16 143
10 17 139
10 18 158
10 19 205
10 20 300
10 21 51
10 22 32
10 23 121
10 24 230
10 25 285
10 26 126
10 27 35
10 28 242
10 29 39
10 30 181
10 31 293
10 32 25
10 33 52
10 34 156
10 35 137
10 36 136
10 37 218
10 38 168
10 39 251
10 40 106
10 41 118
10 42 241
10 43 92
10 44 295
10 45 296
10 46 25
10 47 130
10 48 237
10 49 290
10 50 182
10 51 103
10 52 10
10 53 286
10 54 299
10 55 192
10 56 207
10 57 173
10 58 235
10 59 72
10 60 284
10 61 130
10 62 156
10 63 205
10 64 58
10 65 195
10 66 132
10 67 56
10 68 239
10 69 85
10 70 97
10 71 179
10 72 81
10 73 153
10 74 160
10 75 12
10 76 255
10 77 140
10 78 89
10 79 130
10 80 19
11 12 205
11 13 240
11 14 293
11 15 116
11 16 216
11 17 295
11 18 220
11 19 153
11 20 174
11 21 48
11 22 118
11 23 153
11 24 95
11 25 251
11 26 85
11 27 141
11 28 105
11 29 30
11 30 229
11 31 129
11 32 297
11 33 182
11 34 102
11 35 266
11 36 101
11 37 218
11 38 27
11 39 176
11 40 15
11 41 298
11 42 127
11 43 224
11 44 46
11 45 259
11 46 235
11 47 53
11 48 182
11 49 197
11 50 231
11 51 176
11 52 285
11 53 261
11 54 232
11 55 41
11 56 112
11 57 129
11 58 57
11 59 113
11 60 121
11 61 31
11 62 257
11 63 284
11 64 19
11 65 267
11 66 53
11 67 275
11 68 67
11 69 81
11 70 37
11 71 189
11 72 245
11 73 65
11 74 15
11 75 126
11 76 287
11 77 161
11 78 10
11 79 167
11 80 105
12 13 276
12 14 141
12 15 182
12 16 61
12 17 159
12 18 91
12 19 277
12 20 186
12 21 171
12 22 222
12 23 92
12 24 73
12 25 32
12 26 72
12 27 180
12 28 224
12 29 69
12 30 229
12 31 272
12 32 256
12 33 234
12 34 167
12 35 18
12 36 36
12 37 224
12 38 119
12 39 51
12 40 26
12 41 246
12 42 147
12 43 83
12 44 207
12 45 181
12 46 82
12 47 23
12 48 129
12 49 122
12 50 213
12 51 69
12 52 31
12 53 158
12 54 241
12 55 126
12 56 205
12 57 166
12 58 126
12 59 128
12 60 26
12 61 108
12 62 78
12 63 246
12 64 73
12 65 81
12 66 248
12 67 169
12 68 192
12 69 279
12 70 192
12 71 213
12 72 151
12 73 284
12 74 107
12 75 79
12 76 195
12 77 85
12 78 86
12 79 31
12 80 216
13 14 61
13 15 160
13 16 27
13 17 206
13 18 12
13 19 35
13 20 127
13 21 251
13 22 30
13 23 81
13 24 23
13 25 167
13 26 179
13 27 260
13 28 114
13 29 56
13 30 177
13 31 223
13 32 191
13 33 46
13 34 79
13 35 98
13 36 187
13 37 13
13 38 116
13 39 92
13 40 41
13 41 101
13 42 99
13 43 40
13 44 84
13 45 125
13 46 248
13 47 209
13 48 107
13 49 29
13 50 64
13 51 175
13 52 185
13 53 69
13 54 26
13 55 107
13 56 167
13 57 247
13 58 122
13 59 78
13 60 216
13 61 164
13 62 13
13 63 156
13 64 200
13 65 128
13 66 101
13 67 70
13 68 244
13 69 222
13 70 55
13 71 61
13 72 28
13 73 97
13 74 170
13 75 281
13 76 295
13 77 152
13 78 195
13 79 18
13 80 139
14 15 97
14 16 157
14 17 81
14 18 280
14 19 91
14 20 249
14 21 45
14 22 204
14 23 239
14 24 108
14 25 255
14 26 83
14 27 111
14 28 213
14 29 36
14 30 282
14 31 33
14 32 238
14 33 122
14 34 64
14 35 24
14 36 260
14 37 117
14 38 49
14 39 235
14 40 41
14 41 281
14 42 165
14 43 120
14 44 284
14 45 39
14 46 201
14 47 270
14 48 123
14 49 300
14 50 258
14 51 197
14 52 128
14 53 163
14 54 116
14 55 277
14 56 11
14 57 164
14 58 172
14 59 195
14 60 267
14 61 33
14 62 149
14 63 55
14 64 105
14 65 244
14 66 64
14 67 194
14 68 261
14 69 290
14 70 157
14 71 40
14 72 54
14 73 71
14 74 26
14 75 230
14 76 63
14 77 49
14 78 138
14 79 92
14 80 90
15 16 18
15 17 164
15 18 46
15 19 231
15 20 185
15 21 114
15 22 247
15 23 201
15 24 114
15 25 132
15 26 101
15 27 122
15 28 175
15 29 255
15 30 256
15 31 278
15 32 251
15 33 275
15 34 211
15 35 49
15 36 220
15 37 67
15 38 52
15 39 241
15 40 20
15 41 153
15 42 201
15 43 102
15 44 133
15 45 146
15 46 44
15 47 86
15 48 222
15 49 286
15 50 204
15 51 57
15 52 134
15 53 205
15 54 122
15 55 118
15 56 143
15 57 99
15 58 34
15 59 92
15 60 12
15 61 87
15 62 178
15 63 30
15 64 294
15 65 79
15 66 221
15 67 104
15 68 130
15 69 93
15 70 80
15 71 90
15 72 235
15 73 163
15 74 67
15 75 112
15 76 250
15 77 230
15 78 157
15 79 160
15 80 291
16 17 150
16 18 254
16 19 43
16 20 204
16 21 186
16 22 269
16 23 278
16 24 280
16 25 116
16 26 278
16 27 215
16 28 212
16 29 26
16 30 185
16 31 84
16 32 178
16 33 139
16 34 123
16 35 227
16 36 199
16 37 252
16 38 193
16 39 179
16 40 199
16 41 100
16 42 138
16 43 254
16 44 267
16 45 21
16 46 274
16 47 13
16 48 160
16 49 37
16 50 271
16 51 149
16 52 58
16 53 107
16 54 106
16 55 160
16 56 58
16 57 71
16 58 178
16 59 65
16 60 45
16 61 282
16 62 71
16 63 298
16 64 74
16 65 245
16 66 170
16 67 298
16 68 107
16 69 104
16 70 269
16 71 288
16 72 135
16 73 166
16 74 169
16 75 23
16 76 277
16 77 170
16 78 269
16 79 176
16 80 242
17 18 139
17 19 282
17 20 257
17 21 91
17 22 26
17 23 121
17 24 261
17 25 139
17 26 148
17 27 215
17 28 22
17 29 126
17 30 108
17 31 124
17 32 230
17 33 48
17 34 270
17 35 227
17 36 235
17 37 190
17 38 261
17 39 136
17 40 20
17 41 158
17 42 257
17 43 58
17 44 267
17 45 130
17 46 169
17 47 163
17 48 59
17 49 21
17 50 159
17 51 82
17 52 247
17 53 60
17 54 68
17 55 35
17 56 95
17 57 228
17 58 252
17 59 125
17 60 171
17 61 282
17 62 207
17 63 40
17 64 267
17 65 272
17 66 264
17 67 116
17 68 200
17 69 18
17 70 44
17 71 83
17 72 35
17 73 151
17 74 294
17 75 205
17 76 217
17 77 41
17 78 264
17 79 15
17 80 125
18 19 16
18 20 52
18 21 232
18 22 25
18 23 152
18 24 233
18 25 239
18 26 138
18 27 283
18 28 99
18 29 62
18 30 204
18 31 173
18 32 290
18 33 111
18 34 45
18 35 116
18 36 134
18 37 112
18 38 158
18 39 72
18 40 177
18 41 99
18 42 222
18 43 216
18 44 67
18 45 225
18 46 243
18 47 85
18 48 117
18 49 200
18 50 136
18 51 37
18 52 100
18 53 109
18 54 192
18 55 191
18 56 224
18 57 63
18 58 134
18 59 258
18 60 117
18 61 151
18 62 154
18 63 86
18 64 158
18 65 223
18 66 133
18 67 133
18 68 250
18 69 179
18 70 199
18 71 53
18 72 57
18 73 282
18 74 177
18 75 154
18 76 264
18 77 66
18 78 116
18 79 172
18 80 57
19 20 243
19 21 150
19 22 84
19 23 130
19 24 258
19 25 245
19 26 163
19 27 21
19 28 172
19 29 244
19 30 51
19 31 263
19 32 11
19 33 52
19 34 249
19 35 170
19 36 52
19 37 298
19 38 90
19 39 202
19 40 81
19 41 102
19 42 245
19 43 43
19 44 13
19 45 113
19 46 146
19 47 78
19 48 184
19 49 38
19 50 244
19 51 45
19 52 274
19 53 261
19 54 156
19 55 242
19 56 21
19 57 139
19 58 243
19 59 257
19 60 219
19 61 166
19 62 190
19 63 221
19 64 154
19 65 30
19 66 235
19 67 280
19 68 131
19 69 164
19 70 280
19 71 260
19 72 102
19 73 138
19 74 252
19 75 88
19 76 60
19 77 55
19 78 163
19 79 176
19 80 244
20 21 181
20 22 209
20 23 51
20 24 219
20 25 166
20 26 90
20 27 282
20 28 127
20 29 284
20 30 186
20 31 107
20 32 223
20 33 40
20 34 217
20 35 177
20 36 133
20 37 76
20 38 111
20 39 167
20 40 297
20 41 169
20 42 283
20 43 264
20 44 22
20 45 203
20 46 176
20 47 61
20 48 285
20 49 96
20 50 34
20 51 75
20 52 54
20 53 203
20 54 152
20 55 299
20 56 248
20 57 73
20 58 126
20 59 42
20 60 20
20 61 91
20 62 71
20 63 187
20 64 196
20 65 295
20 66 137
20 67 151
20 68 72
20 69 189
20 70 229
20 71 48
20 72 245
20 73 294
20 74 18
20 75 270
20 76 153
20 77 118
20 78 197
20 79 89
20 80 134
21 22 260
21 23 76
21 24 123
21 25 274
21 26 125
21 27 291
21 28 29
21 29 120
21 30 78
21 31 22
21 32 38
21 33 198
21 34 132
21 35 83
21 36 168
21 37 223
21 38 257
21 39 195
21 40 288
21 41 125
21 42 102
21 43 262
21 44 158
21 45 247
21 46 51
21 47 255
21 48 278
21 49 63
21 50 54
21 51 172
21 52 298
21 53 170
21 54 103
21 55 223
21 56 57
21 57 229
21 58 214
21 59 34
21 60 51
21 61 218
21 62 261
21 63 267
21 64 78
21 65 74
21 66 49
21 67 200
21 68 170
21 69 243
21 70 189
21 71 46
21 72 44
21 73 71
21 74 22
21 75 238
21 76 64
21 77 238
21 78 70
21 79 248
21 80 141
22 23 274
22 24 85
22 25 83
22 26 252
22 27 110
22 28 118
22 29 155
22 30 144
22 31 49
22 32 89
22 33 76
22 34 212
22 35 118
22 36 121
22 37 60
22 38 145
22 39 89
22 40 226
22 41 188
22 42 177
22 43 215
22 44 37
22 45 142
22 46 131
22 47 54
22 48 227
22 49 160
22 50 36
22 51 188
22 52 200
22 53 30
22 54 76
22 55 300
22 56 134
22 57 29
22 58 46
22 59 214
22 60 252
22 61 281
22 62 177
22 63 215
22 64 36
22 65 167
22 66 241
22 67 110
22 68 161
22 69 89
22 70 299
22 71 115
22 72 192
22 73 221
22 74 99
22 75 172
22 76 58
22 77 160
22 78 28
22 79 107
22 80 200
23 24 264
23 25 117
23 26 110
23 27 196
23 28 248
23 29 250
23 30 159
23 31 188
23 32 124
23 33 82
23 34 275
23 35 85
23 36 276
23 37 179
23 38 279
23 39 154
23 40 186
23 41 50
23 42 286
23 43 22
23 44 17
23 45 248
23 46 72
23 47 137
23 48 290
23 49 75
23 50 293
23 51 153
23 52 77
23 53 246
23 54 300
23 55 289
23 56 54
23 57 237
23 58 285
23 59 152
23 60 159
23 61 131
23 62 121
23 63 108
23 64 203
23 65 210
23 66 186
23 67 241
23 68 178
23 69 139
23 70 96
23 71 156
23 72 56
23 73 43
23 74 154
23 75 19
23 76 111
23 77 254
23 78 58
23 79 24
23 80 153
24 25 271
24 26 25
24 27 145
24 28 287
24 29 172
24 30 191
24 31 195
24 32 109
24 33 236
24 34 123
24 35 246
24 36 182
24 37 289
24 38 175
24 39 108
24 40 119
24 41 138
24 42 75
24 43 182
24 44 125
24 45 261
24 46 252
24 47 47
24 48 260
24 49 149
24 50 227
24 51 195
24 52 191
24 53 143
24 54 210
24 55 283
24 56 159
24 57 120
24 58 175
24 59 146
24 60 284
24 61 95
24 62 54
24 63 205
24 64 242
24 65 75
24 66 283
24 67 193
24 68 139
24 69 47
24 70 105
24 71 297
24 72 90
24 73 34
24 74 99
24 75 35
24 76 198
24 77 273
24 78 254
24 79 162
24 80 125
25 26 26
25 27 19
25 28 54
25 29 112
25 30 160
25 31 166
25 32 30
25 33 39
25 34 50
25 35 172
25 36 16
25 37 129
25 38 131
25 39 88
25 40 22
25 41 103
25 42 13
25 43 44
25 44 259
25 45 11
25 46 186
25 47 171
25 48 219
25 49 203
25 50 257
25 51 102
25 52 73
25 53 80
25 54 12
25 55 251
25 56 296
25 57 93
25 58 70
25 59 151
25 60 160
25 61 72
25 62 262
25 63 162
25 64 285
25 65 128
25 66 291
25 67 59
25 68 38
25 69 91
25 70 88
25 71 201
25 72 29
25 73 295
25 74 37
25 75 176
25 76 75
25 77 267
25 78 27
25 79 102
25 80 157
26 27 82
26 28 291
26 29 79
26 30 91
26 31 93
26 32 239
26 33 68
26 34 79
26 35 285
26 36 271
26 37 201
26 38 239
26 39 33
26 40 290
26 41 34
26 42 260
26 43 34
26 44 233
26 45 184
26 46 184
26 47 203
26 48 196
26 49 43
26 50 216
26 51 274
26 52 93
26 53 166
26 54 180
26 55 194
26 56 147
26 57 210
26 58 127
26 59 11
26 60 35
26 61 263
26 62 86
26 63 278
26 64 215
26 65 161
26 66 149
26 67 263
26 68 88
26 69 151
26 70 87
26 71 278
26 72 49
26 73 168
26 74 234
26 75 267
26 76 227
26 77 215
26 78 52
26 79 152
26 80 267
27 28 82
27 29 64
27 30 299
27 31 243
27 32 186
27 33 220
27 34 294
27 35 225
27 36 184
27 37 48
27 38 22
27 39 118
27 40 211
27 41 171
27 42 98
27 43 238
27 44 208
27 45 50
27 46 261
27 47 272
27 48 56
27 49 245
27 50 266
27 51 237
27 52 176
27 53 81
27 54 288
27 55 55
27 56 106
27 57 111
27 58 154
27 59 239
27 60 169
27 61 256
27 62 257
27 63 243
27 64 84
27 65 68
27 66 284
27 67 235
27 68 174
27 69 231
27 70 127
27 71 149
27 72 296
27 73 39
27 74 106
27 75 265
27 76 15
27 77 46
27 78 192
27 79 12
27 80 74
28 29 150
28 30 99
28 31 203
28 32 129
28 33 86
28 34 148
28 35 153
28 36 240
28 37 40
28 38 135
28 39 223
28 40 165
28 41 139
28 42 126
28 43 65
28 44 33
28 45 107
28 46 56
28 47 128
28 48 278
28 49 111
28 50 202
28 51 75
28 52 295
28 53 138
28 54 202
28 55 16
28 56 52
28 57 261
28 58 76
28 59 79
28 60 65
28 61 52
28 62 300
28 63 41
28 64 180
28 65 36
28 66 104
28 67 256
28 68 241
28 69 156
28 70 147
28 71 94
28 72 69
28 73 96
28 74 107
28 75 33
28 76 66
28 77 216
28 78 297
28 79 85
28 80 180
29 30 222
29 31 52
29 32 86
29 33 116
29 34 126
29 35 183
29 36 24
29 37 49
29 38 32
29 39 253
29 40 84
29 41 165
29 42 112
29 43 233
29 44 76
29 45 286
29 46 64
29 47 276
29 48 241
29 49 154
29 50 203
29 51 299
29 52 142
29 53 109
29 54 279
29 55 287
29 56 295
29 57 80
29 58 100
29 59 225
29 60 294
29 61 136
29 62 285
29 63 139
29 64 211
29 65 25
29 66 227
29 67 23
29 68 104
29 69 84
29 70 167
29 71 269
29 72 114
29 73 212
29 74 283
29 75 15
29 76 11
29 77 179
29 78 192
29 79 165
29 80 89
30 31 267
30 32 99
30 33 151
30 34 33
30 35 196
30 36 207
30 37 202
30 38 225
30 39 298
30 40 123
30 41 65
30 42 201
30 43 48
30 44 54
30 45 163
30 46 154
30 47 201
30 48 247
30 49 68
30 50 231
30 51 39
30 52 123
30 53 196
30 54 21
30 55 231
30 56 239
30 57 152
30 58 149
30 59 296
30 60 159
30 61 297
30 62 17
30 63 252
30 64 210
30 65 258
30 66 73
30 67 62
30 68 292
30 69 141
30 70 51
30 71 81
30 72 147
30 73 284
30 74 269
30 75 157
30 76 288
30 77 298
30 78 220
30 79 146
30 80 30
31 32 27
31 33 113
31 34 118
31 35 47
31 36 130
31 37 58
31 38 58
31 39 180
31 40 49
31 41 133
31 42 85
31 43 143
31 44 288
31 45 84
31 46 55
31 47 165
31 48 219
31 49 147
31 50 163
31 51 219
31 52 80
31 53 15
31 54 33
31 55 39
31 56 63
31 57 62
31 58 54
31 59 78
31 60 34
31 61 184
31 62 120
31 63 155
31 64 196
31 65 246
31 66 170
31 67 187
31 68 184
31 69 222
31 70 227
31 71 52
31 72 156
31 73 275
31 74 217
31 75 216
31 76 290
31 77 204
31 78 131
31 79 164
31 80 72
32 33 10
32 34 263
32 35 19
32 36 242
32 37 126
32 38 151
32 39 279
32 40 148
32 41 169
32 42 89
32 43 215
32 44 16
32 45 285
32 46 146
32 47 285
32 48 58
32 49 239
32 50 51
32 51 294
32 52 219
32 53 217
32 54 202
32 55 97
32 56 132
32 57 131
32 58 34
32 59 249
32 60 173
32 61 61
32 62 116
32 63 37
32 64 47
32 65 42
32 66 78
32 67 72
32 68 70
32 69 205
32 70 35
32 71 84
32 72 27
32 73 256
32 74 117
32 75 183
32 76 263
32 77 282
32 78 281
32 79 162
32 80 282
33 34 267
33 35 52
33 36 157
33 37 154
33 38 10
33 39 120
33 40 88
33 41 250
33 42 53
33 43 114
33 44 19
33 45 238
33 46 133
33 47 191
33 48 172
33 49 101
33 50 62
33 51 98
33 52 242
33 53 174
33 54 14
33 55 281
33 56 121
33 57 288
33 58 290
33 59 81
33 60 112
33 61 109
33 62 50
33 63 245
33 64 174
33 65 299
33 66 205
33 67 227
33 68 190
33 69 208
33 70 137
33 71 78
33 72 288
33 73 87
33 74 142
33 75 108
33 76 26
33 77 227
33 78 292
33 79 298
33 80 198
34 35 202
34 36 124
34 37 185
34 38 149
34 39 183
34 40 232
34 41 100
34 42 124
34 43 20
34 44 197
34 45 286
34 46 64
34 47 39
34 48 29
34 49 41
34 50 78
34 51 104
34 52 95
34 53 99
34 54 90
34 55 237
34 56 253
34 57 289
34 58 66
34 59 66
34 60 127
34 61 189
34 62 33
34 63 256
34 64 218
34 65 68
34 66 102
34 67 272
34 68 42
34 69 39
34 70 244
34 71 65
34 72 67
34 73 260
34 74 79
34 75 82
34 76 240
34 77 143
34 78 117
34 79 262
34 80 119
35 36 139
35 37 20
35 38 295
35 39 157
35 40 188
35 41 245
35 42 112
35 43 268
35 44 223
35 45 212
35 46 284
35 47 38
35 48 203
35 49 135
35 50 135
35 51 167
35 52 74
35 53 128
35 54 252
35 55 275
35 56 61
35 57 154
35 58 108
35 59 175
35 60 133
35 61 183
35 62 28
35 63 79
35 64 135
35 65 84
35 66 27
35 67 178
35 68 75
35 69 196
35 70 107
35 71 96
35 72 112
35 73 233
35 74 146
35 75 235
35 76 86
35 77 195
35 78 146
35 79 129
35 80 251
36 37 251
36 38 54
36 39 266
36 40 223
36 41 43
36 42 102
36 43 174
36 44 182
36 45 204
36 46 153
36 47 37
36 48 247
36 49 241
36 50 281
36 51 276
36 52 221
36 53 45
36 54 289
36 55 217
36 56 215
36 57 37
36 58 62
36 59 32
36 60 150
36 61 293
36 62 238
36 63 272
36 64 194
36 65 238
36 66 160
36 67 164
36 68 95
36 69 12
36 70 67
36 71 96
36 72 232
36 73 282
36 74 16
36 75 73
36 76 132
36 77 230
36 78 194
36 79 134
36 80 79
37 38 196
37 39 291
37 40 281
37 41 98
37 42 139
37 43 84
37 44 61
37 45 216
37 46 153
37 47 78
37 48 127
37 49 275
37 50 109
37 51 218
37 52 273
37 53 159
37 54 50
37 55 269
37 56 267
37 57 44
37 58 247
37 59 143
37 60 181
37 61 132
37 62 177
37 63 142
37 64 182
37 65 163
37 66 72
37 67 66
37 68 275
37 69 87
37 70 196
37 71 38
37 72 285
37 73 288
37 74 250
37 75 290
37 76 222
37 77 274
37 78 55
37 79 148
37 80 270
38 39 99
38 40 52
38 41 166
38 42 268
38 43 172
38 44 241
38 45 105
38 46 89
38 47 111
38 48 115
38 49 226
38 50 173
38 51 51
38 52 245
38 53 166
38 54 118
38 55 119
38 56 266
38 57 224
38 58 18
38 59 195
38 60 143
38 61 133
38 62 148
38 63 226
38 64 240
38 65 23
38 66 214
38 67 26
38 68 286
38 69 62
38 70 197
38 71 74
38 72 36
38 73 118
38 74 193
38 75 222
38 76 130
38 77 133
38 78 138
38 79 288
38 80 262
39 40 81
39 41 48
39 42 225
39 43 126
39 44 109
39 45 55
39 46 149
39 47 212
39 48 178
39 49 100
39 50 244
39 51 215
39 52 86
39 53 217
39 54 221
39 55 150
39 56 149
39 57 54
39 58 62
39 59 184
39 60 185
39 61 249
39 62 224
39 63 22
39 64 203
39 65 185
39 66 80
39 67 35
39 68 177
39 69 173
39 70 268
39 71 185
39 72 114
39 73 106
39 74 228
39 75 183
39 76 114
39 77 44
39 78 265
39 79 248
39 80 37
40 41 58
40 42 186
40 43 163
40 44 245
40 45 165
40 46 184
40 47 198
40 48 186
40 49 253
40 50 228
40 51 289
40 52 71
40 53 274
40 54 289
40 55 118
40 56 184
40 57 284
40 58 39
40 59 124
40 60 130
40 61 192
40 62 126
40 63 287
40 64 264
40 65 241
40 66 29
40 67 59
40 68 119
40 69 138
40 70 29
40 71 231
40 72 165
40 73 29
40 74 278
40 75 121
40 76 51
40 77 224
40 78 92
40 79 269
40 80 240
41 42 240
41 43 16
41 44 69
41 45 214
41 46 259
41 47 281
41 48 241
41 49 200
41 50 251
41 51 269
41 52 202
41 53 119
41 54 217
41 55 247
41 56 269
41 57 117
41 58 107
41 59 64
41 60 299
41 61 30
41 62 77
41 63 270
41 64 291
41 65 102
41 66 271
41 67 29
41 68 41
41 69 136
41 70 137
41 71 140
41 72 134
41 73 69
41 74 224
41 75 89
41 76 85
41 77 35
41 78 118
41 79 43
41 80 81
42 43 281
42 44 172
42 45 204
42 46 164
42 47 148
42 48 132
42 49 192
42 50 200
42 51 35
42 52 190
42 53 251
42 54 167
42 55 37
42 56 276
42 57 18
42 58 253
42 59 227
42 60 202
42 61 189
42 62 177
42 63 300
42 64 58
42 65 255
42 66 139
42 67 85
42 68 200
42 69 217
42 70 145
42 71 212
42 72 161
42 73 143
42 74 215
42 75 154
42 76 256
42 77 155
42 78 174
42 79 75
42 80 86
43 44 86
43 45 291
43 46 262
43 47 75
43 48 222
43 49 205
43 50 123
43 51 29
43 52 147
43 53 201
43 54 29
43 55 226
43 56 187
43 57 294
43 58 160
43 59 284
43 60 142
43 61 60
43 62 272
43 63 298
43 64 28
43 65 61
43 66 145
43 67 176
43 68 14
43 69 80
43 70 126
43 71 173
43 72 272
43 73 296
43 74 153
43 75 50
43 76 238
43 77 282
43 78 232
43 79 297
43 80 151
44 45 119
44 46 30
44 47 63
44 48 148
44 49 172
44 50 12
44 51 194
44 52 110
44 53 295
44 54 48
44 55 251
44 56 178
44 57 85
44 58 299
44 59 210
44 60 194
44 61 217
44 62 139
44 63 82
44 64 19
44 65 32
44 66 105
44 67 65
44 68 63
44 69 25
44 70 239
44 71 158
44 72 115
44 73 193
44 74 136
44 75 140
44 76 54
44 77 104
44 78 89
44 79 161
44 80 242
45 46 235
45 47 75
45 48 105
45 49 248
45 50 167
45 51 158
45 52 155
45 53 90
45 54 160
45 55 99
45 56 146
45 57 10
45 58 59
45 59 296
45 60 107
45 61 136
45 62 252
45 63 183
45 64 218
45 65 74
45 66 284
45 67 292
45 68 217
45 69 258
45 70 130
45 71 198
45 72 138
45 73 223
45 74 299
45 75 232
45 76 78
45 77 273
45 78 51
45 79 232
45 80 64
46 47 156
46 48 146
46 49 20
46 50 202
46 51 10
46 52 144
46 53 283
46 54 44
46 55 263
46 56 54
46 57 183
46 58 141
46 59 65
46 60 50
46 61 140
46 62 13
46 63 73
46 64 197
46 65 44
46 66 95
46 67 272
46 68 84
46 69 187
46 70 40
46 71 175
46 72 169
46 73 244
46 74 205
46 75 94
46 76 166
46 77 256
46 78 45
46 79 300
46 80 162
47 48 218
47 49 80
47 50 253
47 51 153
47 52 65
47 53 129
47 54 202
47 55 20
47 56 146
47 57 183
47 58 40
47 59 181
47 60 236
47 61 79
47 62 194
47 63 183
47 64 290
47 65 58
47 66 132
47 67 47
47 68 184
47 69 17
47 70 28
47 71 49
47 72 159
47 73 36
47 74 110
47 75 171
47 76 229
47 77 35
47 78 86
47 79 180
47 80 278
48 49 262
48 50 76
48 51 252
48 52 91
48 53 136
48 54 153
48 55 19
48 56 208
48 57 255
48 58 126
48 59 57
48 60 14
48 61 152
48 62 227
48 63 106
48 64 201
48 65 87
48 66 131
48 67 221
48 68 65
48 69 167
48 70 172
48 71 106
48 72 142
48 73 58
48 74 144
48 75 260
48 76 191
48 77 70
48 78 33
48 79 131
48 80 255
49 50 133
49 51 236
49 52 183
49 53 82
49 54 252
49 55 224
49 56 44
49 57 125
49 58 14
49 59 167
49 60 231
49 61 91
49 62 53
49 63 193
49 64 40
49 65 226
49 66 106
49 67 148
49 68 120
49 69 175
49 70 137
49 71 131
49 72 159
49 73 235
49 74 279
49 75 192
49 76 26
49 77 83
49 78 296
49 79 233
49 80 166
50 51 155
50 52 186
50 53 289
50 54 263
50 55 199
50 56 33
50 57 15
50 58 67
50 59 239
50 60 28
50 61 135
50 62 126
50 63 237
50 64 213
50 65 239
50 66 135
50 67 149
50 68 245
50 69 188
50 70 197
50 71 223
50 72 18
50 73 29
50 74 165
50 75 200
50 76 98
50 77 97
50 78 105
50 79 256
50 80 152
51 52 103
51 53 281
51 54 98
51 55 295
51 56 260
51 57 177
51 58 66
51 59 14
51 60 218
51 61 153
51 62 282
51 63 247
51 64 286
51 65 180
51 66 76
51 67 282
51 68 178
51 69 69
51 70 217
51 71 162
51 72 173
51 73 94
51 74 260
51 75 155
51 76 222
51 77 227
51 78 208
51 79 243
51 80 248
52 53 236
52 54 216
52 55 42
52 56 121
52 57 149
52 58 261
52 59 292
52 60 273
52 61 177
52 62 217
52 63 272
52 64 183
52 65 25
52 66 149
52 67 220
52 68 105
52 69 29
52 70 41
52 71 91
52 72 50
52 73 72
52 74 96
52 75 125
52 76 267
52 77 162
52 78 39
52 79 115
52 80 192
53 54 120
53 55 247
53 56 195
53 57 199
53 58 31
53 59 64
53 60 66
53 61 113
53 62 80
53 63 233
53 64 77
53 65 270
53 66 158
53 67 293
53 68 117
53 69 279
53 70 190
53 71 233
53 72 87
53 73 198
53 74 27
53 75 241
53 76 126
53 77 207
53 78 57
53 79 134
53 80 138
54 55 283
54 56 270
54 57 188
54 58 48
54 59 70
54 60 256
54 61 217
54 62 47
54 63 48
54 64 231
54 65 50
54 66 176
54 67 201
54 68 90
54 69 82
54 70 71
54 71 239
54 72 194
54 73 286
54 74 112
54 75 244
54 76 229
54 77 26
54 78 200
54 79 172
54 80 251
55 56 105
55 57 275
55 58 92
55 59 88
55 60 290
55 61 255
55 62 197
55 63 193
55 64 248
55 65 90
55 66 260
55 67 45
55 68 115
55 69 232
55 70 56
55 71 124
55 72 163
55 73 229
55 74 183
55 75 269
55 76 201
55 77 37
55 78 193
55 79 76
55 80 112
56 57 136
56 58 255
56 59 268
56 60 258
56 61 36
56 62 155
56 63 243
56 64 102
56 65 61
56 66 131
56 67 255
56 68 181
56 69 75
56 70 163
56 71 96
56 72 73
56 73 200
56 74 283
56 75 48
56 76 90
56 77 218
56 78 36
56 79 297
56 80 295
57 58 127
57 59 117
57 60 114
57 61 111
57 62 66
57 63 188
57 64 137
57 65 221
57 66 294
57 67 263
57 68 116
57 69 176
57 70 163
57 71 178
57 72 116
57 73 101
57 74 78
57 75 47
57 76 257
57 77 17
57 78 134
57 79 260
57 80 275
58 59 54
58 60 152
58 61 91
58 62 54
58 63 238
58 64 96
58 65 164
58 66 90
58 67 167
58 68 175
58 69 264
58 70 188
58 71 120
58 72 268
58 73 76
58 74 225
58 75 71
58 76 217
58 77 78
58 78 293
58 79 163
58 80 245
59 60 202
59 61 175
59 62 299
59 63 47
59 64 293
59 65 123
59 66 18
59 67 231
59 68 74
59 69 81
59 70 97
59 71 249
59 72 158
59 73 184
59 74 13
59 75 40
59 76 252
59 77 105
59 78 140
59 79 77
59 80 163
60 61 267
60 62 124
60 63 248
60 64 15
60 65 100
60 66 148
60 67 126
60 68 269
60 69 118
60 70 57
60 71 170
60 72 39
60 73 11
60 74 193
60 75 180
60 76 207
60 77 148
60 78 67
60 79 59
60 80 213
61 62 258
61 63 204
61 64 205
61 65 30
61 66 27
61 67 126
61 68 72
61 69 208
61 70 147
61 71 64
61 72 253
61 73 76
61 74 207
61 75 201
61 76 160
61 77 197
61 78 174
61 79 244
61 80 261
62 63 243
62 64 215
62 65 298
62 66 202
62 67 262
62 68 115
62 69 173
62 70 269
62 71 161
62 72 228
62 73 194
62 74 192
62 75 116
62 76 111
62 77 258
62 78 29
62 79 295
62 80 108
63 64 277
63 65 20
63 66 161
63 67 110
63 68 15
63 69 209
63 70 148
63 71 197
63 72 103
63 73 208
63 74 243
63 75 22
63 76 75
63 77 186
63 78 101
63 79 109
63 80 23
64 65 155
64 66 174
64 67 219
64 68 277
64 69 263
64 70 236
64 71 123
64 72 95
64 73 135
64 74 115
64 75 85
64 76 152
64 77 223
64 78 296
64 79 290
64 80 29
65 66 282
65 67 287
65 68 198
65 69 245
65 70 247
65 71 255
65 72 212
65 73 191
65 74 154
65 75 85
65 76 43
65 77 216
65 78 238
65 79 239
65 80 282
66 67 138
66 68 76
66 69 43
66 70 243
66 71 43
66 72 252
66 73 27
66 74 185
66 75 167
66 76 75
66 77 128
66 78 18
66 79 267
66 80 77
67 68 168
67 69 59
67 70 83
67 71 260
67 72 286
67 73 250
67 74 76
67 75 182
67 76 39
67 77 253
67 78 236
67 79 76
67 80 257
68 69 107
68 70 159
68 71 88
68 72 91
68 73 198
68 74 65
68 75 15
68 76 47
68 77 56
68 78 99
68 79 39
68 80 131
69 70 152
69 71 219
69 72 222
69 73 278
69 74 214
69 75 132
69 76 174
69 77 258
69 78 143
69 79 292
69 80 277
70 71 233
70 72 227
70 73 255
70 74 296
70 75 14
70 76 260
70 77 120
70 78 133
70 79 289
70 80 240
71 72 116
71 73 293
71 74 241
71 75 51
71 76 171
71 77 158
71 78 287
71 79 245
71 80 63
72 73 127
72 74 191
72 75 84
72 76 259
72 77 69
72 78 194
72 79 181
72 80 73
73 74 62
73 75 25
73 76 268
73 77 113
73 78 234
73 79 68
73 80 298
74 75 246
74 76 114
74 77 159
74 78 297
74 79 133
74 80 299
75 76 258
75 77 47
75 78 23
75 79 287
75 80 170
76 77 299
76 78 13
76 79 207
76 80 125
77 78 260
77 79 137
77 80 216
78 79 28
78 80 185
79 80 234
